c "417113.clq"
p edge 199 2928
e 1 17
e 1 18
e 1 19
e 1 20
e 1 21
e 1 22
e 1 23
e 1 27
e 1 28
e 1 37
e 1 39
e 1 59
e 1 93
e 1 99
e 1 118
e 1 177
e 1 189
e 2 17
e 2 18
e 2 19
e 2 20
e 2 22
e 2 29
e 2 31
e 2 32
e 2 38
e 2 41
e 2 72
e 2 83
e 2 86
e 2 99
e 2 112
e 2 137
e 2 139
e 2 153
e 2 158
e 2 164
e 2 172
e 2 189
e 2 195
e 3 17
e 3 18
e 3 19
e 3 20
e 3 24
e 3 25
e 3 26
e 3 27
e 3 28
e 3 32
e 3 33
e 3 41
e 3 43
e 3 45
e 3 50
e 3 53
e 3 59
e 3 62
e 3 66
e 3 75
e 3 76
e 3 82
e 3 84
e 3 89
e 3 91
e 3 93
e 3 94
e 3 99
e 3 104
e 3 110
e 3 119
e 3 123
e 3 124
e 3 151
e 3 157
e 3 158
e 3 170
e 3 172
e 3 179
e 3 184
e 3 195
e 3 197
e 3 199
e 4 17
e 4 18
e 4 19
e 4 20
e 4 22
e 4 23
e 4 24
e 4 26
e 4 27
e 4 28
e 4 29
e 4 30
e 4 32
e 4 33
e 4 34
e 4 35
e 4 36
e 4 37
e 4 40
e 4 45
e 4 47
e 4 50
e 4 56
e 4 57
e 4 58
e 4 64
e 4 70
e 4 78
e 4 83
e 4 93
e 4 95
e 4 112
e 4 113
e 4 120
e 4 123
e 4 128
e 4 152
e 4 153
e 4 154
e 4 157
e 4 158
e 4 159
e 4 163
e 4 168
e 4 180
e 4 195
e 5 17
e 5 18
e 5 21
e 5 23
e 5 24
e 5 26
e 5 30
e 5 34
e 5 37
e 5 42
e 5 43
e 5 49
e 5 62
e 5 70
e 5 71
e 5 74
e 5 75
e 5 78
e 5 79
e 5 83
e 5 92
e 5 98
e 5 99
e 5 104
e 5 113
e 5 120
e 5 121
e 5 123
e 5 127
e 5 136
e 5 143
e 5 151
e 5 171
e 6 17
e 6 18
e 6 19
e 6 20
e 6 21
e 6 22
e 6 25
e 6 28
e 6 29
e 6 34
e 6 37
e 6 39
e 6 40
e 6 42
e 6 45
e 6 47
e 6 53
e 6 54
e 6 58
e 6 60
e 6 63
e 6 73
e 6 78
e 6 79
e 6 111
e 6 120
e 6 128
e 6 137
e 6 152
e 6 157
e 6 161
e 6 163
e 6 166
e 6 168
e 6 175
e 7 17
e 7 19
e 7 21
e 7 22
e 7 23
e 7 24
e 7 29
e 7 41
e 7 51
e 7 52
e 7 60
e 7 77
e 7 95
e 7 106
e 7 114
e 7 135
e 7 144
e 7 148
e 7 171
e 7 177
e 7 178
e 7 191
e 7 199
e 8 17
e 8 18
e 8 20
e 8 21
e 8 24
e 8 25
e 8 27
e 8 31
e 8 33
e 8 34
e 8 37
e 8 38
e 8 44
e 8 51
e 8 52
e 8 69
e 8 70
e 8 72
e 8 75
e 8 80
e 8 83
e 8 88
e 8 93
e 8 96
e 8 97
e 8 98
e 8 131
e 8 132
e 8 142
e 8 144
e 8 150
e 8 153
e 8 158
e 8 160
e 8 174
e 8 175
e 8 178
e 8 184
e 8 199
e 9 17
e 9 18
e 9 19
e 9 22
e 9 24
e 9 27
e 9 29
e 9 33
e 9 51
e 9 54
e 9 57
e 9 61
e 9 63
e 9 65
e 9 68
e 9 70
e 9 76
e 9 77
e 9 98
e 9 119
e 9 129
e 9 130
e 9 134
e 9 141
e 9 142
e 9 153
e 9 161
e 9 171
e 9 179
e 10 17
e 10 18
e 10 19
e 10 20
e 10 21
e 10 22
e 10 23
e 10 24
e 10 26
e 10 28
e 10 30
e 10 36
e 10 41
e 10 42
e 10 55
e 10 57
e 10 61
e 10 70
e 10 71
e 10 74
e 10 75
e 10 83
e 10 97
e 10 105
e 10 106
e 10 108
e 10 122
e 10 133
e 10 153
e 10 162
e 10 163
e 10 174
e 10 176
e 10 182
e 10 186
e 10 199
e 11 17
e 11 18
e 11 19
e 11 20
e 11 21
e 11 23
e 11 25
e 11 28
e 11 33
e 11 35
e 11 36
e 11 38
e 11 39
e 11 40
e 11 52
e 11 54
e 11 57
e 11 62
e 11 64
e 11 75
e 11 79
e 11 86
e 11 92
e 11 93
e 11 105
e 11 116
e 11 119
e 11 125
e 11 133
e 11 144
e 11 149
e 11 161
e 11 166
e 11 176
e 11 184
e 11 191
e 11 192
e 12 17
e 12 18
e 12 19
e 12 20
e 12 21
e 12 22
e 12 23
e 12 24
e 12 25
e 12 27
e 12 29
e 12 30
e 12 31
e 12 32
e 12 35
e 12 41
e 12 43
e 12 44
e 12 46
e 12 47
e 12 49
e 12 53
e 12 55
e 12 57
e 12 58
e 12 61
e 12 62
e 12 63
e 12 71
e 12 74
e 12 76
e 12 86
e 12 88
e 12 91
e 12 95
e 12 97
e 12 106
e 12 121
e 12 127
e 12 129
e 12 138
e 12 142
e 12 144
e 12 146
e 12 149
e 12 175
e 12 189
e 13 17
e 13 18
e 13 19
e 13 20
e 13 21
e 13 22
e 13 23
e 13 25
e 13 26
e 13 27
e 13 29
e 13 32
e 13 36
e 13 38
e 13 40
e 13 42
e 13 43
e 13 48
e 13 51
e 13 53
e 13 54
e 13 56
e 13 57
e 13 60
e 13 65
e 13 69
e 13 70
e 13 73
e 13 79
e 13 82
e 13 83
e 13 92
e 13 101
e 13 120
e 13 133
e 13 142
e 13 152
e 13 184
e 13 193
e 13 196
e 14 17
e 14 18
e 14 19
e 14 20
e 14 21
e 14 22
e 14 23
e 14 24
e 14 25
e 14 26
e 14 28
e 14 29
e 14 31
e 14 32
e 14 33
e 14 46
e 14 48
e 14 50
e 14 52
e 14 56
e 14 57
e 14 82
e 14 84
e 14 86
e 14 88
e 14 91
e 14 92
e 14 95
e 14 96
e 14 101
e 14 106
e 14 107
e 14 109
e 14 118
e 14 126
e 14 130
e 14 147
e 14 150
e 14 154
e 14 155
e 14 159
e 14 168
e 14 172
e 14 173
e 14 179
e 14 181
e 14 183
e 14 189
e 14 192
e 15 17
e 15 18
e 15 19
e 15 20
e 15 21
e 15 23
e 15 25
e 15 29
e 15 39
e 15 42
e 15 44
e 15 46
e 15 47
e 15 48
e 15 55
e 15 56
e 15 58
e 15 60
e 15 66
e 15 69
e 15 86
e 15 93
e 15 96
e 15 99
e 15 104
e 15 110
e 15 129
e 15 134
e 15 137
e 15 149
e 15 155
e 15 157
e 15 179
e 15 186
e 15 187
e 15 194
e 16 17
e 16 18
e 16 19
e 16 20
e 16 21
e 16 22
e 16 24
e 16 25
e 16 26
e 16 28
e 16 29
e 16 31
e 16 32
e 16 33
e 16 38
e 16 42
e 16 43
e 16 45
e 16 53
e 16 55
e 16 56
e 16 58
e 16 60
e 16 61
e 16 69
e 16 85
e 16 89
e 16 93
e 16 103
e 16 108
e 16 116
e 16 120
e 16 164
e 16 168
e 16 185
e 16 188
e 17 18
e 17 19
e 17 20
e 17 21
e 17 22
e 17 23
e 17 24
e 17 25
e 17 26
e 17 27
e 17 28
e 17 29
e 17 30
e 17 31
e 17 32
e 17 33
e 17 34
e 17 36
e 17 38
e 17 39
e 17 40
e 17 41
e 17 42
e 17 43
e 17 45
e 17 46
e 17 47
e 17 48
e 17 50
e 17 52
e 17 53
e 17 55
e 17 56
e 17 57
e 17 58
e 17 59
e 17 60
e 17 63
e 17 64
e 17 65
e 17 66
e 17 67
e 17 68
e 17 70
e 17 72
e 17 73
e 17 76
e 17 77
e 17 78
e 17 79
e 17 80
e 17 81
e 17 82
e 17 83
e 17 84
e 17 85
e 17 87
e 17 89
e 17 94
e 17 95
e 17 100
e 17 102
e 17 103
e 17 106
e 17 107
e 17 108
e 17 113
e 17 121
e 17 126
e 17 130
e 17 140
e 17 141
e 17 142
e 17 147
e 17 148
e 17 149
e 17 150
e 17 152
e 17 162
e 17 164
e 17 167
e 17 173
e 17 176
e 17 177
e 17 180
e 17 181
e 17 183
e 17 184
e 17 186
e 17 189
e 17 192
e 18 19
e 18 20
e 18 21
e 18 22
e 18 23
e 18 24
e 18 25
e 18 26
e 18 27
e 18 28
e 18 30
e 18 31
e 18 32
e 18 33
e 18 36
e 18 37
e 18 40
e 18 41
e 18 45
e 18 48
e 18 49
e 18 50
e 18 55
e 18 57
e 18 59
e 18 63
e 18 65
e 18 66
e 18 68
e 18 72
e 18 77
e 18 81
e 18 84
e 18 87
e 18 88
e 18 89
e 18 96
e 18 99
e 18 103
e 18 113
e 18 133
e 18 138
e 18 147
e 18 151
e 18 159
e 18 175
e 18 178
e 18 193
e 18 196
e 19 20
e 19 21
e 19 22
e 19 23
e 19 24
e 19 25
e 19 26
e 19 27
e 19 28
e 19 30
e 19 31
e 19 33
e 19 34
e 19 35
e 19 37
e 19 38
e 19 39
e 19 40
e 19 41
e 19 42
e 19 44
e 19 45
e 19 47
e 19 49
e 19 51
e 19 52
e 19 53
e 19 54
e 19 55
e 19 57
e 19 58
e 19 59
e 19 60
e 19 62
e 19 64
e 19 65
e 19 66
e 19 67
e 19 73
e 19 74
e 19 78
e 19 79
e 19 81
e 19 95
e 19 99
e 19 101
e 19 103
e 19 105
e 19 108
e 19 111
e 19 117
e 19 118
e 19 121
e 19 124
e 19 127
e 19 128
e 19 133
e 19 139
e 19 140
e 19 141
e 19 142
e 19 143
e 19 149
e 19 151
e 19 152
e 19 167
e 19 168
e 19 169
e 19 172
e 19 173
e 19 175
e 19 176
e 19 180
e 19 181
e 20 21
e 20 22
e 20 23
e 20 25
e 20 26
e 20 27
e 20 28
e 20 29
e 20 30
e 20 31
e 20 32
e 20 34
e 20 35
e 20 36
e 20 38
e 20 39
e 20 41
e 20 42
e 20 43
e 20 44
e 20 45
e 20 46
e 20 48
e 20 51
e 20 54
e 20 58
e 20 59
e 20 61
e 20 62
e 20 63
e 20 64
e 20 65
e 20 66
e 20 70
e 20 71
e 20 73
e 20 76
e 20 77
e 20 78
e 20 79
e 20 83
e 20 84
e 20 87
e 20 90
e 20 93
e 20 94
e 20 96
e 20 97
e 20 98
e 20 100
e 20 102
e 20 103
e 20 104
e 20 105
e 20 110
e 20 119
e 20 121
e 20 122
e 20 124
e 20 134
e 20 136
e 20 142
e 20 148
e 20 150
e 20 156
e 20 160
e 20 167
e 20 176
e 20 177
e 20 186
e 20 190
e 20 191
e 20 196
e 20 199
e 21 22
e 21 23
e 21 24
e 21 25
e 21 26
e 21 27
e 21 28
e 21 30
e 21 31
e 21 33
e 21 35
e 21 36
e 21 38
e 21 40
e 21 41
e 21 44
e 21 46
e 21 49
e 21 50
e 21 51
e 21 53
e 21 54
e 21 59
e 21 62
e 21 68
e 21 69
e 21 70
e 21 72
e 21 75
e 21 77
e 21 79
e 21 87
e 21 88
e 21 90
e 21 92
e 21 93
e 21 94
e 21 98
e 21 99
e 21 102
e 21 107
e 21 108
e 21 113
e 21 114
e 21 116
e 21 117
e 21 120
e 21 121
e 21 122
e 21 123
e 21 132
e 21 134
e 21 140
e 21 144
e 21 151
e 21 153
e 21 156
e 21 172
e 21 180
e 21 188
e 21 190
e 21 194
e 21 197
e 22 23
e 22 24
e 22 26
e 22 28
e 22 29
e 22 30
e 22 31
e 22 35
e 22 36
e 22 39
e 22 40
e 22 41
e 22 42
e 22 44
e 22 45
e 22 46
e 22 50
e 22 58
e 22 68
e 22 69
e 22 75
e 22 76
e 22 77
e 22 94
e 22 108
e 22 110
e 22 114
e 22 140
e 22 145
e 22 148
e 22 165
e 22 173
e 22 174
e 22 177
e 22 180
e 22 186
e 22 196
e 23 24
e 23 25
e 23 26
e 23 27
e 23 30
e 23 31
e 23 32
e 23 33
e 23 34
e 23 35
e 23 36
e 23 37
e 23 38
e 23 39
e 23 41
e 23 44
e 23 46
e 23 47
e 23 48
e 23 50
e 23 51
e 23 55
e 23 56
e 23 58
e 23 60
e 23 64
e 23 67
e 23 69
e 23 71
e 23 72
e 23 73
e 23 76
e 23 82
e 23 84
e 23 85
e 23 86
e 23 88
e 23 90
e 23 91
e 23 93
e 23 98
e 23 99
e 23 101
e 23 105
e 23 108
e 23 110
e 23 111
e 23 112
e 23 114
e 23 116
e 23 125
e 23 134
e 23 140
e 23 144
e 23 145
e 23 151
e 23 154
e 23 156
e 23 162
e 23 176
e 23 177
e 23 183
e 23 184
e 23 187
e 23 193
e 23 195
e 23 197
e 23 199
e 24 25
e 24 26
e 24 27
e 24 29
e 24 30
e 24 32
e 24 33
e 24 34
e 24 35
e 24 37
e 24 38
e 24 42
e 24 43
e 24 52
e 24 54
e 24 55
e 24 56
e 24 60
e 24 62
e 24 70
e 24 73
e 24 74
e 24 80
e 24 81
e 24 86
e 24 88
e 24 95
e 24 96
e 24 97
e 24 103
e 24 104
e 24 108
e 24 109
e 24 114
e 24 116
e 24 117
e 24 119
e 24 120
e 24 124
e 24 130
e 24 133
e 24 134
e 24 138
e 24 146
e 24 154
e 24 162
e 24 163
e 24 169
e 24 172
e 24 181
e 24 183
e 24 185
e 24 186
e 24 190
e 25 26
e 25 27
e 25 28
e 25 30
e 25 34
e 25 35
e 25 36
e 25 37
e 25 38
e 25 39
e 25 40
e 25 41
e 25 42
e 25 44
e 25 46
e 25 47
e 25 56
e 25 62
e 25 64
e 25 70
e 25 76
e 25 77
e 25 79
e 25 80
e 25 88
e 25 89
e 25 90
e 25 91
e 25 92
e 25 98
e 25 100
e 25 109
e 25 117
e 25 118
e 25 122
e 25 123
e 25 124
e 25 127
e 25 129
e 25 132
e 25 135
e 25 137
e 25 144
e 25 154
e 25 156
e 25 157
e 25 162
e 25 166
e 25 169
e 25 171
e 25 174
e 25 177
e 25 187
e 25 191
e 25 195
e 25 198
e 26 27
e 26 28
e 26 29
e 26 30
e 26 31
e 26 32
e 26 34
e 26 35
e 26 36
e 26 37
e 26 40
e 26 41
e 26 43
e 26 45
e 26 47
e 26 48
e 26 50
e 26 52
e 26 55
e 26 57
e 26 61
e 26 63
e 26 66
e 26 67
e 26 68
e 26 76
e 26 80
e 26 81
e 26 82
e 26 89
e 26 90
e 26 94
e 26 95
e 26 96
e 26 97
e 26 100
e 26 101
e 26 102
e 26 103
e 26 106
e 26 112
e 26 114
e 26 115
e 26 116
e 26 118
e 26 122
e 26 127
e 26 128
e 26 130
e 26 134
e 26 137
e 26 138
e 26 159
e 26 160
e 26 163
e 26 166
e 26 190
e 26 192
e 26 194
e 26 198
e 27 30
e 27 32
e 27 35
e 27 37
e 27 38
e 27 40
e 27 42
e 27 43
e 27 48
e 27 49
e 27 51
e 27 53
e 27 54
e 27 63
e 27 67
e 27 68
e 27 69
e 27 77
e 27 78
e 27 82
e 27 85
e 27 92
e 27 95
e 27 98
e 27 103
e 27 108
e 27 112
e 27 113
e 27 114
e 27 129
e 27 130
e 27 134
e 27 138
e 27 139
e 27 141
e 27 142
e 27 147
e 27 149
e 27 157
e 27 160
e 27 161
e 27 173
e 27 178
e 27 185
e 27 194
e 28 29
e 28 31
e 28 33
e 28 34
e 28 36
e 28 47
e 28 51
e 28 53
e 28 54
e 28 55
e 28 57
e 28 59
e 28 62
e 28 66
e 28 67
e 28 71
e 28 73
e 28 75
e 28 78
e 28 80
e 28 83
e 28 88
e 28 100
e 28 101
e 28 110
e 28 112
e 28 116
e 28 118
e 28 121
e 28 126
e 28 132
e 28 136
e 28 149
e 28 164
e 28 170
e 28 175
e 28 180
e 28 182
e 28 186
e 28 188
e 28 189
e 28 190
e 28 199
e 29 30
e 29 31
e 29 32
e 29 33
e 29 34
e 29 36
e 29 37
e 29 38
e 29 39
e 29 40
e 29 45
e 29 47
e 29 49
e 29 50
e 29 51
e 29 59
e 29 61
e 29 62
e 29 63
e 29 64
e 29 67
e 29 68
e 29 69
e 29 72
e 29 73
e 29 78
e 29 81
e 29 83
e 29 86
e 29 88
e 29 89
e 29 94
e 29 100
e 29 101
e 29 111
e 29 112
e 29 116
e 29 122
e 29 127
e 29 131
e 29 135
e 29 136
e 29 137
e 29 140
e 29 147
e 29 156
e 29 161
e 29 166
e 29 177
e 29 178
e 29 180
e 29 181
e 29 190
e 29 197
e 29 198
e 30 31
e 30 34
e 30 37
e 30 39
e 30 50
e 30 56
e 30 65
e 30 69
e 30 75
e 30 76
e 30 80
e 30 81
e 30 85
e 30 88
e 30 91
e 30 92
e 30 97
e 30 98
e 30 99
e 30 100
e 30 103
e 30 104
e 30 107
e 30 109
e 30 113
e 30 115
e 30 117
e 30 118
e 30 123
e 30 125
e 30 127
e 30 133
e 30 138
e 30 139
e 30 141
e 30 143
e 30 182
e 30 183
e 30 184
e 31 32
e 31 34
e 31 35
e 31 36
e 31 39
e 31 43
e 31 44
e 31 46
e 31 48
e 31 50
e 31 52
e 31 63
e 31 64
e 31 65
e 31 66
e 31 67
e 31 70
e 31 71
e 31 74
e 31 76
e 31 80
e 31 82
e 31 87
e 31 88
e 31 93
e 31 101
e 31 102
e 31 107
e 31 112
e 31 119
e 31 124
e 31 128
e 31 132
e 31 145
e 31 151
e 31 157
e 31 164
e 31 173
e 31 174
e 31 177
e 31 184
e 31 186
e 31 191
e 31 199
e 32 33
e 32 35
e 32 40
e 32 42
e 32 43
e 32 44
e 32 46
e 32 48
e 32 49
e 32 55
e 32 59
e 32 61
e 32 63
e 32 64
e 32 65
e 32 66
e 32 67
e 32 69
e 32 73
e 32 75
e 32 78
e 32 82
e 32 85
e 32 86
e 32 87
e 32 90
e 32 94
e 32 97
e 32 98
e 32 103
e 32 105
e 32 107
e 32 119
e 32 123
e 32 129
e 32 133
e 32 134
e 32 135
e 32 137
e 32 145
e 32 156
e 32 159
e 32 164
e 32 166
e 32 191
e 32 198
e 33 34
e 33 35
e 33 37
e 33 38
e 33 39
e 33 40
e 33 43
e 33 44
e 33 45
e 33 55
e 33 56
e 33 58
e 33 62
e 33 63
e 33 68
e 33 76
e 33 77
e 33 79
e 33 80
e 33 81
e 33 84
e 33 85
e 33 86
e 33 91
e 33 92
e 33 95
e 33 96
e 33 100
e 33 105
e 33 111
e 33 116
e 33 119
e 33 122
e 33 123
e 33 128
e 33 132
e 33 140
e 33 141
e 33 147
e 33 155
e 33 157
e 33 161
e 33 162
e 33 175
e 33 183
e 33 191
e 33 198
e 34 35
e 34 36
e 34 41
e 34 45
e 34 50
e 34 52
e 34 59
e 34 66
e 34 71
e 34 78
e 34 80
e 34 88
e 34 96
e 34 97
e 34 99
e 34 102
e 34 103
e 34 121
e 34 143
e 34 165
e 34 167
e 34 176
e 34 184
e 35 39
e 35 40
e 35 44
e 35 46
e 35 47
e 35 48
e 35 49
e 35 54
e 35 56
e 35 57
e 35 58
e 35 63
e 35 68
e 35 74
e 35 77
e 35 80
e 35 82
e 35 96
e 35 107
e 35 111
e 35 113
e 35 114
e 35 137
e 35 141
e 35 144
e 35 147
e 35 198
e 36 37
e 36 44
e 36 46
e 36 47
e 36 49
e 36 50
e 36 52
e 36 53
e 36 54
e 36 56
e 36 61
e 36 71
e 36 90
e 36 101
e 36 105
e 36 116
e 36 119
e 36 125
e 36 132
e 36 136
e 36 140
e 36 141
e 36 143
e 36 145
e 36 146
e 36 153
e 36 158
e 36 160
e 36 165
e 36 188
e 36 189
e 36 191
e 36 195
e 37 38
e 37 39
e 37 43
e 37 47
e 37 49
e 37 50
e 37 52
e 37 53
e 37 58
e 37 60
e 37 61
e 37 64
e 37 67
e 37 74
e 37 75
e 37 78
e 37 87
e 37 90
e 37 113
e 37 114
e 37 115
e 37 116
e 37 118
e 37 120
e 37 128
e 37 129
e 37 131
e 37 136
e 37 143
e 37 146
e 37 148
e 37 159
e 37 162
e 37 168
e 37 172
e 37 174
e 37 182
e 37 187
e 37 195
e 37 197
e 38 41
e 38 43
e 38 44
e 38 46
e 38 64
e 38 73
e 38 80
e 38 81
e 38 83
e 38 86
e 38 87
e 38 88
e 38 89
e 38 90
e 38 92
e 38 94
e 38 109
e 38 113
e 38 122
e 38 128
e 38 146
e 38 160
e 38 171
e 38 182
e 38 185
e 38 190
e 38 193
e 39 43
e 39 47
e 39 51
e 39 56
e 39 60
e 39 71
e 39 74
e 39 79
e 39 85
e 39 94
e 39 104
e 39 106
e 39 113
e 39 117
e 39 129
e 39 132
e 39 134
e 39 144
e 39 148
e 39 154
e 39 158
e 39 159
e 39 163
e 39 170
e 39 183
e 39 190
e 39 195
e 40 42
e 40 45
e 40 48
e 40 49
e 40 52
e 40 59
e 40 65
e 40 67
e 40 68
e 40 74
e 40 80
e 40 85
e 40 92
e 40 95
e 40 98
e 40 100
e 40 106
e 40 108
e 40 110
e 40 113
e 40 114
e 40 116
e 40 131
e 40 136
e 40 137
e 40 138
e 40 169
e 40 170
e 40 171
e 40 176
e 40 181
e 40 182
e 40 186
e 40 196
e 40 197
e 41 42
e 41 45
e 41 48
e 41 51
e 41 55
e 41 57
e 41 62
e 41 63
e 41 70
e 41 76
e 41 78
e 41 84
e 41 106
e 41 108
e 41 124
e 41 128
e 41 139
e 41 144
e 41 149
e 41 151
e 41 153
e 41 167
e 41 170
e 41 171
e 41 174
e 41 175
e 41 179
e 42 44
e 42 52
e 42 53
e 42 54
e 42 57
e 42 61
e 42 65
e 42 78
e 42 83
e 42 102
e 42 104
e 42 106
e 42 123
e 42 125
e 42 137
e 42 139
e 42 147
e 42 150
e 42 163
e 42 164
e 43 48
e 43 49
e 43 55
e 43 57
e 43 67
e 43 69
e 43 72
e 43 82
e 43 84
e 43 86
e 43 91
e 43 98
e 43 104
e 43 110
e 43 121
e 43 130
e 43 142
e 43 158
e 43 170
e 43 171
e 43 181
e 43 194
e 43 195
e 43 198
e 44 45
e 44 46
e 44 47
e 44 48
e 44 49
e 44 53
e 44 55
e 44 58
e 44 80
e 44 92
e 44 99
e 44 101
e 44 104
e 44 116
e 44 119
e 44 120
e 44 125
e 44 130
e 44 139
e 44 142
e 44 147
e 44 154
e 44 163
e 44 165
e 44 170
e 44 178
e 44 183
e 44 189
e 44 193
e 45 46
e 45 49
e 45 51
e 45 54
e 45 56
e 45 62
e 45 66
e 45 76
e 45 85
e 45 91
e 45 98
e 45 100
e 45 108
e 45 109
e 45 117
e 45 132
e 45 137
e 45 143
e 45 149
e 45 150
e 45 164
e 45 169
e 45 170
e 45 191
e 46 49
e 46 50
e 46 51
e 46 60
e 46 61
e 46 62
e 46 63
e 46 65
e 46 68
e 46 69
e 46 71
e 46 73
e 46 76
e 46 79
e 46 80
e 46 81
e 46 82
e 46 89
e 46 94
e 46 101
e 46 107
e 46 111
e 46 112
e 46 114
e 46 122
e 46 131
e 46 133
e 46 139
e 46 149
e 46 154
e 46 163
e 46 169
e 46 176
e 46 180
e 46 183
e 46 187
e 46 197
e 47 51
e 47 54
e 47 59
e 47 64
e 47 71
e 47 83
e 47 89
e 47 92
e 47 97
e 47 110
e 47 112
e 47 114
e 47 115
e 47 118
e 47 120
e 47 123
e 47 131
e 47 133
e 47 135
e 47 139
e 47 140
e 47 155
e 47 158
e 47 161
e 47 165
e 47 169
e 47 170
e 47 171
e 47 174
e 47 178
e 47 179
e 48 52
e 48 53
e 48 54
e 48 60
e 48 61
e 48 66
e 48 68
e 48 70
e 48 71
e 48 78
e 48 85
e 48 87
e 48 88
e 48 100
e 48 101
e 48 102
e 48 103
e 48 119
e 48 120
e 48 133
e 48 134
e 48 135
e 48 136
e 48 139
e 48 142
e 48 158
e 48 160
e 48 183
e 48 186
e 49 52
e 49 60
e 49 69
e 49 72
e 49 75
e 49 87
e 49 89
e 49 90
e 49 102
e 49 108
e 49 118
e 49 126
e 49 146
e 49 150
e 49 156
e 49 157
e 49 161
e 49 172
e 49 190
e 50 64
e 50 91
e 50 94
e 50 107
e 50 110
e 50 112
e 50 114
e 50 119
e 50 132
e 50 140
e 50 155
e 51 53
e 51 58
e 51 59
e 51 61
e 51 63
e 51 66
e 51 68
e 51 77
e 51 81
e 51 87
e 51 88
e 51 91
e 51 96
e 51 98
e 51 100
e 51 102
e 51 103
e 51 108
e 51 113
e 51 120
e 51 121
e 51 122
e 51 130
e 51 135
e 51 161
e 51 163
e 51 168
e 51 180
e 51 181
e 51 188
e 51 195
e 52 59
e 52 65
e 52 71
e 52 74
e 52 84
e 52 97
e 52 101
e 52 106
e 52 141
e 52 144
e 52 146
e 52 152
e 52 162
e 52 165
e 52 168
e 52 185
e 52 189
e 52 199
e 53 56
e 53 60
e 53 66
e 53 67
e 53 72
e 53 77
e 53 81
e 53 87
e 53 95
e 53 96
e 53 104
e 53 115
e 53 131
e 53 139
e 53 150
e 53 151
e 53 160
e 53 165
e 53 174
e 53 175
e 53 196
e 54 59
e 54 74
e 54 79
e 54 95
e 54 106
e 54 109
e 54 117
e 54 125
e 54 138
e 54 141
e 54 159
e 54 167
e 54 173
e 54 188
e 54 191
e 54 195
e 55 61
e 55 65
e 55 70
e 55 72
e 55 74
e 55 80
e 55 82
e 55 86
e 55 91
e 55 110
e 55 111
e 55 128
e 55 133
e 55 145
e 55 148
e 55 156
e 55 166
e 55 188
e 56 67
e 56 79
e 56 97
e 56 104
e 56 122
e 56 130
e 56 133
e 56 141
e 56 142
e 56 148
e 56 151
e 56 153
e 56 173
e 56 179
e 56 181
e 56 197
e 57 58
e 57 62
e 57 65
e 57 70
e 57 71
e 57 72
e 57 75
e 57 78
e 57 91
e 57 131
e 57 134
e 57 156
e 57 165
e 57 178
e 57 189
e 58 60
e 58 69
e 58 73
e 58 93
e 58 112
e 58 118
e 58 127
e 58 131
e 58 140
e 58 153
e 58 156
e 58 157
e 58 162
e 58 188
e 58 190
e 59 61
e 59 64
e 59 66
e 59 67
e 59 68
e 59 69
e 59 72
e 59 73
e 59 75
e 59 84
e 59 85
e 59 87
e 59 89
e 59 100
e 59 106
e 59 107
e 59 109
e 59 111
e 59 118
e 59 143
e 59 146
e 59 147
e 59 148
e 59 156
e 59 165
e 59 170
e 59 176
e 59 192
e 60 65
e 60 72
e 60 85
e 60 89
e 60 90
e 60 104
e 60 109
e 60 110
e 60 124
e 60 125
e 60 134
e 60 152
e 60 153
e 60 154
e 60 186
e 61 73
e 61 83
e 61 95
e 61 96
e 61 99
e 61 102
e 61 112
e 61 113
e 61 117
e 61 123
e 61 126
e 61 137
e 61 173
e 61 174
e 61 176
e 61 179
e 61 187
e 62 90
e 62 91
e 62 148
e 62 156
e 62 160
e 62 162
e 62 180
e 63 64
e 63 72
e 63 82
e 63 83
e 63 84
e 63 100
e 63 105
e 63 107
e 63 109
e 63 115
e 63 124
e 63 129
e 63 135
e 63 161
e 63 175
e 63 185
e 63 193
e 64 74
e 64 81
e 64 83
e 64 85
e 64 91
e 64 111
e 64 117
e 64 125
e 64 126
e 64 141
e 64 152
e 64 162
e 64 172
e 64 178
e 64 189
e 64 192
e 64 194
e 64 197
e 65 68
e 65 77
e 65 91
e 65 94
e 65 107
e 65 121
e 65 122
e 65 123
e 65 124
e 65 130
e 65 132
e 65 138
e 65 142
e 65 143
e 65 149
e 65 168
e 65 170
e 66 67
e 66 74
e 66 75
e 66 77
e 66 93
e 66 97
e 66 105
e 66 110
e 66 111
e 66 122
e 66 128
e 66 136
e 66 137
e 66 158
e 66 164
e 66 172
e 66 175
e 66 177
e 66 190
e 67 107
e 67 127
e 67 140
e 67 149
e 67 160
e 67 178
e 67 194
e 67 198
e 68 73
e 68 128
e 68 144
e 68 178
e 69 85
e 69 89
e 69 124
e 69 127
e 69 129
e 69 133
e 69 143
e 69 159
e 69 183
e 69 188
e 70 71
e 70 72
e 70 75
e 70 89
e 70 90
e 70 94
e 70 101
e 70 106
e 70 114
e 70 129
e 70 135
e 70 145
e 70 164
e 70 166
e 70 173
e 70 174
e 70 187
e 70 192
e 70 193
e 70 196
e 71 76
e 71 77
e 71 79
e 71 81
e 71 86
e 71 87
e 71 90
e 71 92
e 71 93
e 71 105
e 71 109
e 71 123
e 71 125
e 71 126
e 71 128
e 71 130
e 71 133
e 71 140
e 71 143
e 71 155
e 71 158
e 71 173
e 71 182
e 71 183
e 71 188
e 71 191
e 71 199
e 72 92
e 72 96
e 72 105
e 72 131
e 72 141
e 72 153
e 72 173
e 72 186
e 72 196
e 72 198
e 73 74
e 73 82
e 73 84
e 73 87
e 73 102
e 73 120
e 73 129
e 73 131
e 73 135
e 73 147
e 73 151
e 73 156
e 73 162
e 73 175
e 73 189
e 74 90
e 74 115
e 74 125
e 74 131
e 74 159
e 74 160
e 74 167
e 75 79
e 75 90
e 75 109
e 75 111
e 75 112
e 75 118
e 75 121
e 75 127
e 75 129
e 75 135
e 75 136
e 75 138
e 75 155
e 75 156
e 75 159
e 75 166
e 75 172
e 75 182
e 75 184
e 75 192
e 75 193
e 75 194
e 76 81
e 76 82
e 76 99
e 76 118
e 76 134
e 76 149
e 76 150
e 76 166
e 76 171
e 76 172
e 76 189
e 77 81
e 77 98
e 77 112
e 77 115
e 77 131
e 77 148
e 77 153
e 77 192
e 77 194
e 78 86
e 78 92
e 78 99
e 78 109
e 78 134
e 78 137
e 78 169
e 78 193
e 79 84
e 79 85
e 79 97
e 79 100
e 79 101
e 79 104
e 79 105
e 79 106
e 79 124
e 79 125
e 79 126
e 79 145
e 79 151
e 79 154
e 79 166
e 79 169
e 79 179
e 79 183
e 79 192
e 80 86
e 80 97
e 80 100
e 80 106
e 80 111
e 80 126
e 80 132
e 80 133
e 80 149
e 80 154
e 80 155
e 80 169
e 80 195
e 81 84
e 81 99
e 81 102
e 81 123
e 81 126
e 81 145
e 81 157
e 81 159
e 81 167
e 81 168
e 81 169
e 81 171
e 82 84
e 82 93
e 82 116
e 82 121
e 82 125
e 82 127
e 82 130
e 82 154
e 82 165
e 82 171
e 82 180
e 82 181
e 83 87
e 83 103
e 83 109
e 83 127
e 83 128
e 83 130
e 83 138
e 83 147
e 83 154
e 83 178
e 83 180
e 83 194
e 84 89
e 84 93
e 84 150
e 84 157
e 84 164
e 84 179
e 84 184
e 84 187
e 84 199
e 85 114
e 85 122
e 85 124
e 85 173
e 85 199
e 86 94
e 86 127
e 86 132
e 86 185
e 86 187
e 87 107
e 87 113
e 87 115
e 87 117
e 87 153
e 87 194
e 88 97
e 88 102
e 88 112
e 88 115
e 88 124
e 88 144
e 88 161
e 88 179
e 88 185
e 89 95
e 89 126
e 89 141
e 89 145
e 89 163
e 89 177
e 89 178
e 90 95
e 90 105
e 90 108
e 90 136
e 90 146
e 90 155
e 90 157
e 90 167
e 90 170
e 90 172
e 90 197
e 91 96
e 91 110
e 91 117
e 91 118
e 91 119
e 91 121
e 91 132
e 91 147
e 91 148
e 91 166
e 91 190
e 91 195
e 92 96
e 92 98
e 92 105
e 92 115
e 92 126
e 92 140
e 92 175
e 92 197
e 93 94
e 93 103
e 93 129
e 93 142
e 93 146
e 93 171
e 93 182
e 94 101
e 94 105
e 94 135
e 94 152
e 94 154
e 94 179
e 95 102
e 95 109
e 95 117
e 95 150
e 95 152
e 95 155
e 95 156
e 95 162
e 95 163
e 95 176
e 95 186
e 95 189
e 95 190
e 96 104
e 96 135
e 96 138
e 96 167
e 96 176
e 96 181
e 97 117
e 97 119
e 97 122
e 97 123
e 97 125
e 97 128
e 97 177
e 97 182
e 98 107
e 98 124
e 98 138
e 99 110
e 99 120
e 99 141
e 99 147
e 99 152
e 99 155
e 99 165
e 99 167
e 99 173
e 99 181
e 99 193
e 100 111
e 100 115
e 100 137
e 100 145
e 100 149
e 100 152
e 100 158
e 100 165
e 100 167
e 100 173
e 100 188
e 101 102
e 101 103
e 101 104
e 101 108
e 101 115
e 101 124
e 101 126
e 101 127
e 101 146
e 101 147
e 101 155
e 101 177
e 101 179
e 101 188
e 102 115
e 102 125
e 102 138
e 102 151
e 102 152
e 102 155
e 102 157
e 102 161
e 102 184
e 102 194
e 103 115
e 103 174
e 104 113
e 104 120
e 104 129
e 104 165
e 104 192
e 104 193
e 105 109
e 105 121
e 105 151
e 105 152
e 105 158
e 105 165
e 105 181
e 106 107
e 106 111
e 106 130
e 106 135
e 106 136
e 106 165
e 106 181
e 106 190
e 106 196
e 107 115
e 107 116
e 107 136
e 107 147
e 107 160
e 107 162
e 107 167
e 107 177
e 107 193
e 107 196
e 108 111
e 108 114
e 108 139
e 108 163
e 108 196
e 109 110
e 109 122
e 109 146
e 109 170
e 109 180
e 110 119
e 110 120
e 110 123
e 110 126
e 110 127
e 110 129
e 110 155
e 110 156
e 110 166
e 110 169
e 110 179
e 110 186
e 111 119
e 111 121
e 111 143
e 111 182
e 111 186
e 112 146
e 112 184
e 113 139
e 113 141
e 113 148
e 113 182
e 114 116
e 114 117
e 114 136
e 114 162
e 114 164
e 114 171
e 114 185
e 114 199
e 115 118
e 115 131
e 115 146
e 115 148
e 115 152
e 115 171
e 115 177
e 116 117
e 116 125
e 116 126
e 116 145
e 116 157
e 116 159
e 116 163
e 117 142
e 117 143
e 117 145
e 117 182
e 117 185
e 117 191
e 118 135
e 118 138
e 118 146
e 118 155
e 118 164
e 118 189
e 118 194
e 119 174
e 119 176
e 121 131
e 121 132
e 121 139
e 121 143
e 121 144
e 121 185
e 121 199
e 122 131
e 122 145
e 122 160
e 122 163
e 122 165
e 122 167
e 122 172
e 122 181
e 122 182
e 122 187
e 122 197
e 122 199
e 123 126
e 123 148
e 123 149
e 123 150
e 123 188
e 124 128
e 124 140
e 124 154
e 124 161
e 124 194
e 125 136
e 125 153
e 125 178
e 125 184
e 125 192
e 126 139
e 126 150
e 126 168
e 126 172
e 126 185
e 126 196
e 126 198
e 127 159
e 127 175
e 128 130
e 128 142
e 128 150
e 128 152
e 128 166
e 128 168
e 128 190
e 128 197
e 129 132
e 129 136
e 129 140
e 129 144
e 129 160
e 129 196
e 130 143
e 130 163
e 130 164
e 130 168
e 131 145
e 132 134
e 132 150
e 132 169
e 132 185
e 132 187
e 132 199
e 133 135
e 133 145
e 133 154
e 133 175
e 133 176
e 133 198
e 134 158
e 134 167
e 134 178
e 135 137
e 135 144
e 135 195
e 136 187
e 136 198
e 137 138
e 137 169
e 137 187
e 138 139
e 139 161
e 139 166
e 139 167
e 139 176
e 140 168
e 141 164
e 141 170
e 141 186
e 141 196
e 142 143
e 142 169
e 142 170
e 142 171
e 142 177
e 142 193
e 143 148
e 143 151
e 143 153
e 143 174
e 143 192
e 143 198
e 144 146
e 144 155
e 144 174
e 144 187
e 145 191
e 146 159
e 146 160
e 147 169
e 147 170
e 147 182
e 147 184
e 147 191
e 148 166
e 148 172
e 148 183
e 148 192
e 149 150
e 149 161
e 149 179
e 149 181
e 150 151
e 150 180
e 150 185
e 150 190
e 150 191
e 152 157
e 152 158
e 152 168
e 152 183
e 152 195
e 153 160
e 153 189
e 154 183
e 154 192
e 154 194
e 154 198
e 155 158
e 155 159
e 155 182
e 157 188
e 158 180
e 158 197
e 159 162
e 160 161
e 160 164
e 161 187
e 163 197
e 164 198
e 165 185
e 165 192
e 166 168
e 166 175
e 167 174
e 168 193
e 170 173
e 170 178
e 171 188
e 171 193
e 173 179
e 173 180
e 173 191
e 175 194
e 176 187
e 178 193
e 178 196
e 180 184
e 180 185
e 180 198
e 185 196
e 186 188
e 186 195
e 193 197
